
Gurobi 10.0.3 (linux64, gurobi_cl) logging started Thu Nov  9 12:54:33 2023

Set parameter Username
Set parameter TimeLimit to value 3600
Set parameter LogFile to value "RCPSP_1423.log"
Set parameter Threads to value 32
Academic license - for non-commercial use only - expires 2024-10-30
Using license file /home/jrivera6/gurobi-licenses/v1003/compute-0-34/gurobi.lic

Gurobi Optimizer version 10.0.3 build v10.0.3rc0 (linux64)
Copyright (c) 2023, Gurobi Optimization, LLC

Read MPS format model from file RCPSP_1423.mps
Reading time = 0.05 seconds
RCPSP_1423: 42975 rows, 17020 columns, 159179 nonzeros

CPU model: Intel(R) Xeon(R) Gold 6130 CPU @ 2.10GHz, instruction set [SSE2|AVX|AVX2|AVX512]
Thread count: 32 physical cores, 32 logical processors, using up to 32 threads

Optimize a model with 42975 rows, 17020 columns and 159179 nonzeros
Model fingerprint: 0x874baa3f
Variable types: 92 continuous, 16928 integer (16928 binary)
Coefficient statistics:
  Matrix range     [1e+00, 6e+02]
  Objective range  [1e+00, 1e+00]
  Bounds range     [1e+00, 1e+00]
  RHS range        [1e+00, 6e+02]
Presolve removed 8244 rows and 2273 columns
Presolve time: 4.98s
Presolved: 34731 rows, 14747 columns, 134818 nonzeros
Variable types: 91 continuous, 14656 integer (14656 binary)

Deterministic concurrent LP optimizer: primal and dual simplex (primal and dual model)
Showing first log only...

Root relaxation presolved: 34731 rows, 14747 columns, 134818 nonzeros


Root simplex log...

Iteration    Objective       Primal Inf.    Dual Inf.      Time
       0    1.0363215e+02   4.309250e-02   2.908457e+08      6s
Concurrent spin time: 0.22s

Solved with dual simplex (primal model)

Root relaxation: objective 1.020000e+02, 5333 iterations, 1.17 seconds (0.13 work units)

    Nodes    |    Current Node    |     Objective Bounds      |     Work
 Expl Unexpl |  Obj  Depth IntInf | Incumbent    BestBd   Gap | It/Node Time

     0     0  102.00000    0   54          -  102.00000      -     -    9s
     0     0  102.00000    0  377          -  102.00000      -     -   20s
     0     0  102.00000    0  329          -  102.00000      -     -   21s
     0     0  102.00000    0   46          -  102.00000      -     -   24s
     0     0  102.00000    0   64          -  102.00000      -     -   25s
     0     0  102.00000    0    8          -  102.00000      -     -   27s
     0     0  102.00000    0   12          -  102.00000      -     -   29s
     0     0  102.00000    0   16          -  102.00000      -     -   30s
     0     0  102.00000    0    8          -  102.00000      -     -   33s
     0     0  102.00000    0    8          -  102.00000      -     -   36s
     0     0  102.00000    0   14          -  102.00000      -     -   38s
H    0     0                     102.0000000  102.00000  0.00%     -   40s
     0     0  102.00000    0    6  102.00000  102.00000  0.00%     -   40s

Cutting planes:
  Gomory: 14
  Cover: 5
  Implied bound: 68
  MIR: 54
  StrongCG: 3
  RLT: 107
  Relax-and-lift: 70

Explored 1 nodes (35278 simplex iterations) in 40.99 seconds (9.68 work units)
Thread count was 32 (of 32 available processors)

Solution count 1: 102 

Optimal solution found (tolerance 1.00e-04)
Best objective 1.020000000000e+02, best bound 1.020000000000e+02, gap 0.0000%

Wrote result file 'RCPSP_1423.sol'

